10  10
  0  17  1  9  2  25  3  36  4  81  5  51  6  33  7  18  8  29  9  3
  0  96  1  62  2  41  3  29  4  15  5  49  6  20  7  21  8  6  9  19
  0  70  1  14  2  58  3  93  4  57  5  92  6  88  7  21  8  76  9  61
  0  37  1  54  2  82  3  20  4  90  5  99  6  70  7  73  8  96  9  88
  0  2  1  82  2  16  3  74  4  7  5  6  6  26  7  50  8  27  9  11
  0  67  1  29  2  61  3  45  4  10  5  48  6  39  7  6  8  60  9  88
  0  33  1  31  2  58  3  2  4  80  5  18  6  18  7  10  8  81  9  37
  0  20  1  7  2  85  3  85  4  54  5  75  6  96  7  17  8  76  9  9
  0  40  1  26  2  30  3  90  4  95  5  90  6  22  7  79  8  66  9  81
  0  96  1  92  2  53  3  3  4  13  5  1  6  48  7  27  8  19  9  59
